
--- Job BM_ref.gms Start 04/18/18 16:45:54 25.0.1 r65189 WEX-WEI x86 64bit/MS Windows
GAMS 25.0.1   Copyright (C) 1987-2018 GAMS Development. All rights reserved
Licensee: Eval License Carnegie Mellon University        G180112/0001AS-GEN
          Dept. of Chemical Engineering                              DC9476
          License for teaching and research at degree granting institutions
          License Admin: Ignacio E. Grossmann                              
--- Starting continued compilation
--- Workfile was generated under GAMS version WEX250-250
--- BM_ref.gms(68) 3 Mb
--- .max_time_ref.gms(1) 3 Mb
--- BM_ref.gms(88) 3 Mb
--- Starting execution: elapsed 0:00:00.006
--- BM_ref.gms(581) 3 Mb
--- Generating RMIP model prob
--- BM_ref.gms(585) 3 Mb
---   454 rows  121 columns  962 non-zeroes
---   56 discrete-columns
--- Executing CPLEX: elapsed 0:00:00.017

IBM ILOG CPLEX   25.0.1 r65189 Released Jan 17, 2018 WEI x86 64bit/MS Windows 
--- GAMS/Cplex licensed for continuous and discrete problems.
Cplex 12.8.0.0

Reading data...
Starting Cplex...
Space for names approximately 0.01 Mb
Use option 'names no' to turn use of names off
CPXPARAM_Advance                                 0
CPXPARAM_Simplex_Limits_Iterations               2000000000
CPXPARAM_TimeLimit                               7200
CPXPARAM_Threads                                 1
CPXPARAM_Parallel                                1
CPXPARAM_Tune_TimeLimit                          1440
Tried aggregator 1 time.
LP Presolve eliminated 138 rows and 6 columns.
Aggregator did 4 substitutions.
Reduced LP has 312 rows, 111 columns, and 706 nonzeros.
Presolve time = 0.00 sec. (0.18 ticks)
Initializing dual steep norms . . .

Iteration log . . .
Iteration:     1   Dual objective     =       -148371.000000
Iteration:    67   Dual objective     =        -31042.564356
LP status(1): optimal
Cplex Time: 0.00sec (det. 0.94 ticks)

Optimal solution found.
Objective :      -31039.774194

--- Restarting execution
--- BM_ref.gms(585) 2 Mb
--- Reading solution for model prob
--- Executing after solve: elapsed 0:00:00.548
--- BM_ref.gms(587) 3 Mb
--- Generating MIP model prob
--- BM_ref.gms(589) 3 Mb
---   454 rows  121 columns  962 non-zeroes
---   56 discrete-columns
--- Executing CPLEX: elapsed 0:00:00.560

IBM ILOG CPLEX   25.0.1 r65189 Released Jan 17, 2018 WEI x86 64bit/MS Windows 
--- GAMS/Cplex licensed for continuous and discrete problems.
Cplex 12.8.0.0

Reading data...
Starting Cplex...
Space for names approximately 0.01 Mb
Use option 'names no' to turn use of names off
CPXPARAM_Advance                                 0
CPXPARAM_Simplex_Limits_Iterations               2000000000
CPXPARAM_TimeLimit                               7200
CPXPARAM_WorkDir                                 "C:\Users\debernal\Dropbox\CMU\Research\Lagrangean_GDP\Logic_based_B_B_food_1\225a\"
CPXPARAM_Threads                                 1
CPXPARAM_Parallel                                1
CPXPARAM_Tune_TimeLimit                          1440
CPXPARAM_MIP_Tolerances_AbsMIPGap                0
CPXPARAM_MIP_Tolerances_MIPGap                   0.001
CPXPARAM_MIP_Display                             4
Tried aggregator 1 time.
MIP Presolve eliminated 142 rows and 10 columns.
MIP Presolve modified 48 coefficients.
Reduced MIP has 312 rows, 111 columns, and 706 nonzeros.
Reduced MIP has 56 binaries, 0 generals, 0 SOSs, and 0 indicators.
Presolve time = 0.00 sec. (0.49 ticks)
Found incumbent of value -3484.000000 after 0.00 sec. (0.68 ticks)
Probing time = 0.00 sec. (0.34 ticks)
Tried aggregator 1 time.
Reduced MIP has 312 rows, 111 columns, and 706 nonzeros.
Reduced MIP has 56 binaries, 0 generals, 0 SOSs, and 0 indicators.
Presolve time = 0.02 sec. (0.48 ticks)
Probing time = 0.00 sec. (0.34 ticks)
Clique table members: 4.
MIP emphasis: balance optimality and feasibility.
MIP search method: dynamic search.
Parallel mode: none, using 1 thread.
Tried aggregator 1 time.
No LP presolve or aggregator reductions.
Presolve time = 0.00 sec. (0.10 ticks)
Initializing dual steep norms . . .

Iteration log . . .
Iteration:     1   Dual objective     =       -148371.000000
Iteration:    62   Dual objective     =        -31075.000000
Root relaxation solution time = 0.00 sec. (0.79 ticks)

        Nodes                                         Cuts/
   Node  Left     Objective  IInf  Best Integer    Best Bound    ItCnt     Gap

*     0+    0                        -3484.0000  -166389.0000              --- 
Found incumbent of value -3484.000000 after 0.02 sec. (3.35 ticks)
      0     0   -31039.7742     6    -3484.0000   -31039.7742       83  790.92%
*     0+    0                       -23560.0000   -31039.7742            31.75%
Found incumbent of value -23560.000000 after 0.02 sec. (3.70 ticks)
      0     0   -31039.0000     2   -23560.0000      Cuts: 15       88   31.74%
*     0+    0                       -27234.0000   -31039.0000            13.97%
Found incumbent of value -27234.000000 after 0.02 sec. (4.76 ticks)
      0     0   -31039.0000     2   -27234.0000      Cuts: 10       93   13.97%
      0     0   -31039.0000     2   -27234.0000       Cuts: 7       95   13.97%
*     0+    0                       -29263.0000   -31039.0000             6.07%
Found incumbent of value -29263.000000 after 0.03 sec. (6.61 ticks)
      0     0        cutoff         -29263.0000   -31039.0000      110    6.07%
Elapsed time = 0.03 sec. (8.58 ticks, tree = 0.01 MB, solutions = 4)

Implied bound cuts applied:  9
Mixed integer rounding cuts applied:  2
Gomory fractional cuts applied:  4

Root node processing (before b&c):
  Real time             =    0.03 sec. (8.59 ticks)
Sequential b&c:
  Real time             =    0.00 sec. (0.00 ticks)
                          ------------
Total (root+branch&cut) =    0.03 sec. (8.59 ticks)
MIP status(101): integer optimal solution
Cplex Time: 0.03sec (det. 8.59 ticks)
Fixing integer variables, and solving final LP...
CPXPARAM_Advance                                 2
CPXPARAM_Simplex_Limits_Iterations               2000000000
CPXPARAM_TimeLimit                               7200
CPXPARAM_WorkDir                                 "C:\Users\debernal\Dropbox\CMU\Research\Lagrangean_GDP\Logic_based_B_B_food_1\225a\"
CPXPARAM_Threads                                 1
CPXPARAM_Parallel                                1
CPXPARAM_Tune_TimeLimit                          1440
CPXPARAM_MIP_Tolerances_AbsMIPGap                0
CPXPARAM_MIP_Tolerances_MIPGap                   0.001
CPXPARAM_MIP_Display                             4
Tried aggregator 1 time.
LP Presolve eliminated 427 rows and 79 columns.
Aggregator did 10 substitutions.
Reduced LP has 17 rows, 32 columns, and 49 nonzeros.
Presolve time = 0.00 sec. (0.15 ticks)
Initializing dual steep norms . . .

Iteration log . . .
Iteration:     1   Dual objective     =        -92510.000000
Fixed MIP status(1): optimal
Cplex Time: 0.00sec (det. 0.32 ticks)

Proven optimal solution.

MIP Solution:       -29263.000000    (110 iterations, 0 nodes)
Final Solve:        -29263.000000    (20 iterations)

Best possible:      -29263.000000
Absolute gap:            0.000000
Relative gap:            0.000000

--- Restarting execution
--- BM_ref.gms(589) 2 Mb
--- Reading solution for model prob
--- Executing after solve: elapsed 0:00:00.662
--- BM_ref.gms(597) 3 Mb
--- GDX File C:\Users\debernal\Dropbox\CMU\Research\Lagrangean_GDP\Logic_based_B_B_food_1\res_prob .gdx
*** Status: Normal completion
--- Job BM_ref.gms Stop 04/18/18 16:45:54 elapsed 0:00:00.669
